p cnf 32 82
a 8 11 0
e 1 2 3 4 5 6 7 9 10 12 13 14 15 16 17 18 19 20 21 22 23 24 25 26 27 28 29 30 31 32 0
3 1 0
3 2 0
-1 -2 -3 0
-6 -4 0
-6 -5 0
4 5 6 0
-6 -7 -8 0
6 7 -8 0
-6 7 8 0
6 -7 8 0
3 -8 -9 0
-3 8 -9 0
3 8 9 0
-3 -8 9 0
4 10 -11 0
-4 -10 -11 0
4 -10 11 0
-4 10 11 0
-12 2 0
-12 11 0
-2 -11 12 0
9 12 -13 0
-9 -12 -13 0
9 -12 13 0
-9 12 13 0
-15 6 0
-15 -14 0
-6 14 15 0
-17 2 0
-17 16 0
-2 -16 17 0
-19 -3 0
-19 -18 0
3 18 19 0
20 -10 0
20 -6 0
10 6 -20 0
-21 -5 0
-21 -14 0
5 14 21 0
20 21 -22 0
-20 -21 -22 0
20 -21 22 0
-20 21 22 0
23 -1 0
23 8 0
1 -8 -23 0
-6 -23 -24 0
6 23 -24 0
-6 23 24 0
6 -23 24 0
22 -24 -25 0
-22 24 -25 0
22 24 25 0
-22 -24 25 0
26 19 0
26 25 0
-19 -25 -26 0
27 17 0
27 26 0
-17 -26 -27 0
-15 27 -28 0
15 -27 -28 0
-15 -27 28 0
15 27 28 0
30 -18 0
30 29 0
18 -29 -30 0
31 -28 0
31 -30 0
28 30 -31 0
-32 13 0
-32 -31 0
-13 31 32 0
-9 23 0
3 -28 -9 6 -1 -17 31 0
22 -27 -17 0
-3 -2 -25 -22 -15 -6 10 0
-3 5 -29 -9 0
-11 -30 16 7 0
-1 18 -2 -24 -14 -21 -3 0
32 0
